
Gurobi 11.0.2 (linux64) logging started Tue 03 Dec 2024 09:06:12 AM CET

Set parameter LogFile to value "./res/knapPI_11_50_1000/knapPI_11_50_1000_80/grb_dom.log"
Set parameter Presolve to value 0
Set parameter Aggregate to value 0
Set parameter Heuristics to value 0
Set parameter LPWarmStart to value 0
Set parameter NLPHeur to value 0
Set parameter PreDepRow to value 0
Set parameter PreDual to value 0
Set parameter RINS to value 0
Set parameter Symmetry to value 0
Set parameter NodeLimit to value 1
Set parameter Threads to value 1

Gurobi 11.0.2 (linux64) logging started Tue 03 Dec 2024 09:06:12 AM CET

Set parameter LogFile to value "./res/knapPI_11_50_1000/knapPI_11_50_1000_80/grb_dom.log"
Set parameter NLPHeur to value 0
Set parameter LPWarmStart to value 0
Set parameter PreDepRow to value 0
Set parameter Symmetry to value 0
Set parameter Presolve to value 0
Gurobi Optimizer version 11.0.2 build v11.0.2rc0 (linux64 - "Pop!_OS 20.04 LTS")

CPU model: Intel(R) Core(TM) i7-8650U CPU @ 1.90GHz, instruction set [SSE2|AVX|AVX2]
Thread count: 4 physical cores, 4 logical processors, using up to 1 threads

Optimize a model with 5495 rows, 50 columns and 33118 nonzeros
Model fingerprint: 0x83d3e95e
Variable types: 0 continuous, 50 integer (50 binary)
Coefficient statistics:
  Matrix range     [1e+00, 2e+03]
  Objective range  [4e+01, 7e+02]
  Bounds range     [0e+00, 0e+00]
  RHS range        [2e+04, 2e+04]
Variable types: 0 continuous, 50 integer (50 binary)

Root relaxation: objective 1.544956e+04, 1 iterations, 0.01 seconds (0.00 work units)

    Nodes    |    Current Node    |     Objective Bounds      |     Work
 Expl Unexpl |  Obj  Depth IntInf | Incumbent    BestBd   Gap | It/Node Time

     0     0 15449.5648    0    1          - 15449.5648      -     -    0s
     0     0 15449.5648    0    1          - 15449.5648      -     -    0s
     0     0 15449.5648    0    3          - 15449.5648      -     -    0s
     0     0 15449.5648    0    3          - 15449.5648      -     -    0s
     0     0 15449.5648    0    1          - 15449.5648      -     -    0s
     0     0 15449.5648    0    3          - 15449.5648      -     -    0s
     0     0 15449.5648    0    4          - 15449.5648      -     -    0s
     0     0 15449.5648    0    3          - 15449.5648      -     -    0s
     0     0 15449.5648    0    2          - 15449.5648      -     -    0s
     0     0 15449.5648    0    3          - 15449.5648      -     -    0s
     0     0 15449.5648    0    4          - 15449.5648      -     -    0s
     0     0 15449.5648    0    2          - 15449.5648      -     -    0s
     0     2 15449.5648    0    2          - 15449.5648      -     -    0s

Cutting planes:
  MIR: 1
  StrongCG: 2

Explored 1 nodes (20 simplex iterations) in 0.37 seconds (0.10 work units)
Thread count was 1 (of 4 available processors)

Solution count 0

Node limit reached
Best objective -, best bound 1.544900000000e+04, gap -

User-callback calls 246, time in user-callback 0.00 sec
opt = false
obj = 15449.5648
nb_dom_cuts = 5494
solved_time = 0.3662
opt_val = 15414.0
